(set-info :Origin "This instance was generated by: BanditFuzz-- an RL fuzzer for SMT solvers" )
(set-info :Author "Joe Scott, Fed Mora, Vijay Ganesh" )
(set-info :Contact "Joe Scott, joseph.scott@uwaterloo.ca")
(set-logic QF_BV)
(declare-const bool_0 Bool)
(declare-const bool_1 Bool)
(declare-const bool_2 Bool)
(declare-const bool_3 Bool)
(declare-const bool_4 Bool)
(declare-const bv_0 (_ BitVec 32))
(declare-const bv_1 (_ BitVec 32))
(declare-const bv_2 (_ BitVec 32))
(declare-const bv_3 (_ BitVec 32))
(declare-const bv_4 (_ BitVec 32))
(assert (bvule (bvlshr (bvsub #x4760e3f9  #xcaa82f91 ) (bvurem #xf9fa16f3  #x0cf63346 )) (bvand (bvashr bv_3 bv_3) (bvnand #x2fbbca40  bv_1))))
(assert (bvuge (bvashr (bvxor bv_4 #x2e8922d0 ) (bvand #xf5378f5b  bv_3)) (bvnand (bvxnor #xca7f8c8b  bv_3) (bvurem #xf219ea6e  #xd3cadb97 ))))
(assert (bvslt (bvsub (bvlshr #x383f1ec1  #xdea418a8 ) (bvsrem #xc04a260d  #xabecfcfa )) (bvxnor (bvnor #xce679360  #x3a04801d ) (bvshl bv_3 #x3f6671f0 ))))
(assert (or (bvslt (bvor #x978807a1  #x421cb220 ) (bvsmod bv_1 #x37f115f5 )) (bvuge (bvashr bv_0 bv_2) (bvnand bv_1 bv_0))))
(assert (bvsle (bvsmod (bvsmod bv_0 bv_2) (bvadd bv_3 bv_4)) (bvsmod (bvand bv_2 #x12352e22 ) (bvxnor bv_0 bv_2))))
(check-sat)
(exit)
